CPXPARAM_TimeLimit                               3600
CPXPARAM_Read_DataCheck                          1
CPXPARAM_MIP_Strategy_HeuristicFreq              -1
Parallel mode: deterministic, using up to 8 threads for concurrent optimization.
Tried aggregator 1 time.
LP Presolve eliminated 27409 rows and 20475 columns.
Reduced LP has 23651 rows, 1801 columns, and 70177 nonzeros.
Presolve time = 0.02 sec. (25.04 ticks)

Iteration log . . .
Iteration:     1   Dual objective     =           849.000000
Perturbation started.
Iteration:   205   Dual objective     =           849.000000
Initializing dual steep norms . . .
Iteration:   206   Dual objective     =           849.000016
Iteration:   685   Dual objective     =           849.012766
Iteration:  1021   Dual objective     =           849.014404
Iteration:  1301   Dual objective     =           849.015001
Iteration:  1610   Dual objective     =           849.018445
Iteration:  1954   Dual objective     =           858.226461
Iteration:  2264   Dual objective     =           861.245284
Iteration:  2596   Dual objective     =           870.072940
Iteration:  2906   Dual objective     =           902.262444
Iteration:  3329   Dual objective     =           910.603035
Iteration:  3725   Dual objective     =           911.313123
Iteration:  4113   Dual objective     =           914.169146
Iteration:  4502   Dual objective     =           914.898320
Removing perturbation.

Dual simplex solved model.

